Academic license - for non-commercial use only
Gurobi Optimizer version 9.0.3 build v9.0.3rc0 (mac64)
Optimize a model with 415466 rows, 400800 columns and 2301950 nonzeros
Model fingerprint: 0x17ff7416
Variable types: 0 continuous, 400800 integer (400800 binary)
Coefficient statistics:
  Matrix range     [1e+00, 1e+00]
  Objective range  [1e+01, 1e+05]
  Bounds range     [1e+00, 1e+00]
  RHS range        [1e+00, 1e+03]
Presolve removed 6050 rows and 50 columns (presolve time = 5s) ...
Presolve added 0 rows and 5950 columns
Presolve removed 50 rows and 0 columns
Presolve time: 6.69s
Presolved: 415416 rows, 406750 columns, 1719850 nonzeros
Variable types: 0 continuous, 406750 integer (406750 binary)
Found heuristic solution: objective 2021406.0000

Concurrent LP optimizer: dual simplex and barrier
Showing barrier log only...

Root barrier log...

Ordering time: 0.12s

Barrier statistics:
 Dense cols : 400
 AA' NZ     : 1.332e+06
 Factor NZ  : 5.533e+06 (roughly 400 MBytes of memory)
 Factor Ops : 1.335e+09 (less than 1 second per iteration)
 Threads    : 3

                  Objective                Residual
Iter       Primal          Dual         Primal    Dual     Compl     Time
   0   6.20757192e+08 -7.65733177e+08  7.11e+02 2.86e+01  3.25e+04    12s
   1   3.12888455e+06 -1.00779748e+09  1.86e+00 1.49e+03  9.13e+02    12s
   2   2.40566334e+06 -4.91040014e+08  6.04e-01 7.35e+02  4.24e+02    13s
   3   2.28130284e+06 -2.96304122e+08  3.84e-01 4.43e+02  2.54e+02    13s
   4   2.10048655e+06 -1.63289525e+08  6.11e-02 2.42e+02  1.38e+02    14s
   5   2.05439869e+06 -6.53156913e+06  2.36e-04 1.78e+01  7.15e+00    14s
   6   2.03728081e+06 -4.27671045e+05  1.89e-04 3.86e+00  2.04e+00    15s
   7   2.02878059e+06  6.02976476e+05  1.73e-04 2.20e+00  1.18e+00    15s
   8   2.00608589e+06  1.03636208e+06  1.52e-04 1.46e+00  8.03e-01    16s
   9   1.99435835e+06  1.31883021e+06  1.41e-04 1.31e+00  5.58e-01    16s
  10   1.97021016e+06  1.47321268e+06  1.21e-04 9.66e-01  4.10e-01    17s
  11   1.95576734e+06  1.56081611e+06  1.11e-04 6.76e-01  3.26e-01    17s
  12   1.93105198e+06  1.64028930e+06  9.50e-05 5.35e-01  2.40e-01    19s
  13   1.91756935e+06  1.67388141e+06  8.66e-05 4.05e-01  2.01e-01    19s
  14   1.91421150e+06  1.68276113e+06  8.46e-05 3.79e-01  1.91e-01    20s
  15   1.88806398e+06  1.70875467e+06  7.00e-05 2.58e-01  1.48e-01    21s
  16   1.87365195e+06  1.72256650e+06  6.24e-05 1.98e-01  1.24e-01    21s
  17   1.86037790e+06  1.73577160e+06  5.51e-05 1.53e-01  1.02e-01    22s
  18   1.85207034e+06  1.74292239e+06  5.03e-05 1.21e-01  8.97e-02    23s
  19   1.84622109e+06  1.74689277e+06  4.69e-05 1.03e-01  8.16e-02    23s
  20   1.83567052e+06  1.75029322e+06  4.08e-05 9.06e-02  7.01e-02    24s
  21   1.82534433e+06  1.75456239e+06  3.50e-05 6.95e-02  5.81e-02    24s
  22   1.81814602e+06  1.75705132e+06  3.08e-05 5.92e-02  5.02e-02    25s
  23   1.80767586e+06  1.75885395e+06  2.46e-05 5.08e-02  4.01e-02    26s
  24   1.80482556e+06  1.76014402e+06  2.29e-05 4.49e-02  3.67e-02    26s
  25   1.79940522e+06  1.76123127e+06  1.96e-05 3.97e-02  3.14e-02    27s
  26   1.79653059e+06  1.76239267e+06  1.77e-05 3.38e-02  2.80e-02    27s
  27   1.79369564e+06  1.76362048e+06  1.59e-05 2.80e-02  2.47e-02    28s
  28   1.79052584e+06  1.76491849e+06  1.40e-05 2.21e-02  2.10e-02    28s
  29   1.78954789e+06  1.76595600e+06  1.33e-05 1.79e-02  1.94e-02    29s
  30   1.78654657e+06  1.76636965e+06  1.14e-05 1.61e-02  1.66e-02    29s
  31   1.78444626e+06  1.76672728e+06  1.01e-05 1.44e-02  1.45e-02    30s
  32   1.78349216e+06  1.76739801e+06  9.46e-06 1.19e-02  1.32e-02    31s
  33   1.78202332e+06  1.76746476e+06  8.47e-06 1.16e-02  1.20e-02    31s
  34   1.78125594e+06  1.76786885e+06  7.98e-06 9.88e-03  1.10e-02    32s
  35   1.78057356e+06  1.76810407e+06  7.50e-06 8.87e-03  1.02e-02    32s
  36   1.77878452e+06  1.76830888e+06  6.28e-06 7.99e-03  8.60e-03    33s
  37   1.77855157e+06  1.76845082e+06  6.11e-06 7.39e-03  8.29e-03    33s
  38   1.77806531e+06  1.76861696e+06  5.77e-06 6.63e-03  7.75e-03    34s
  39   1.77771092e+06  1.76871756e+06  5.51e-06 6.20e-03  7.38e-03    35s
  40   1.77712618e+06  1.76882267e+06  5.09e-06 5.76e-03  6.81e-03    35s
  41   1.77691374e+06  1.76887104e+06  4.93e-06 5.55e-03  6.60e-03    36s
  42   1.77668130e+06  1.76893143e+06  4.75e-06 5.30e-03  6.36e-03    36s
  43   1.77647922e+06  1.76897727e+06  4.60e-06 5.11e-03  6.16e-03    37s
  44   1.77601095e+06  1.76916601e+06  4.24e-06 4.42e-03  5.62e-03    37s
  45   1.77562933e+06  1.76926106e+06  3.98e-06 3.98e-03  5.23e-03    38s
  46   1.77469744e+06  1.76938159e+06  3.33e-06 3.49e-03  4.36e-03    38s
  47   1.77429607e+06  1.76946632e+06  3.05e-06 3.18e-03  3.96e-03    39s
  48   1.77404657e+06  1.76956779e+06  2.89e-06 2.78e-03  3.68e-03    39s
  49   1.77372324e+06  1.76965382e+06  2.66e-06 2.47e-03  3.34e-03    40s
  50   1.77363604e+06  1.76967188e+06  2.59e-06 2.39e-03  3.25e-03    40s
  51   1.77333867e+06  1.76970939e+06  2.37e-06 2.24e-03  2.98e-03    41s
  52   1.77319733e+06  1.76973050e+06  2.27e-06 2.15e-03  2.84e-03    42s
  53   1.77289935e+06  1.76980030e+06  2.04e-06 1.90e-03  2.54e-03    42s
  54   1.77268947e+06  1.76984293e+06  1.88e-06 1.74e-03  2.34e-03    43s
  55   1.77242085e+06  1.76987962e+06  1.70e-06 1.61e-03  2.09e-03    43s
  56   1.77227988e+06  1.76992221e+06  1.59e-06 1.45e-03  1.93e-03    44s
  57   1.77218844e+06  1.76998218e+06  1.52e-06 1.18e-03  1.81e-03    44s
  58   1.77205733e+06  1.77001119e+06  1.42e-06 1.07e-03  1.68e-03    45s
  59   1.77179639e+06  1.77003973e+06  1.22e-06 9.57e-04  1.44e-03    45s
  60   1.77165497e+06  1.77004543e+06  1.11e-06 9.34e-04  1.32e-03    46s
  61   1.77153539e+06  1.77006733e+06  1.01e-06 8.43e-04  1.20e-03    46s
  62   1.77138035e+06  1.77009411e+06  8.89e-07 7.34e-04  1.06e-03    47s
  63   1.77124909e+06  1.77011299e+06  7.85e-07 6.59e-04  9.32e-04    47s
  64   1.77113188e+06  1.77013182e+06  6.91e-07 5.85e-04  8.21e-04    48s
  65   1.77108122e+06  1.77016240e+06  6.53e-07 5.11e-04  7.54e-04    48s
  66   1.77101543e+06  1.77016992e+06  5.98e-07 4.79e-04  6.94e-04    49s
  67   1.77097757e+06  1.77017473e+06  5.70e-07 4.57e-04  6.59e-04    49s
  68   1.77091812e+06  1.77018811e+06  5.19e-07 4.07e-04  5.99e-04    50s
  69   1.77078059e+06  1.77020298e+06  4.11e-07 3.44e-04  4.74e-04    50s
  70   1.77070288e+06  1.77021755e+06  3.45e-07 2.95e-04  3.98e-04    51s
  71   1.77065366e+06  1.77022771e+06  3.03e-07 2.52e-04  3.49e-04    51s
  72   1.77059613e+06  1.77023591e+06  2.57e-07 2.18e-04  2.96e-04    52s
  73   1.77054012e+06  1.77024027e+06  2.10e-07 1.97e-04  2.46e-04    52s
  74   1.77048109e+06  1.77024836e+06  1.60e-07 1.65e-04  1.91e-04    52s
  75   1.77045666e+06  1.77026281e+06  1.38e-07 1.07e-04  1.59e-04    53s
  76   1.77039432e+06  1.77026510e+06  8.55e-08 9.87e-05  1.06e-04    53s
  77   1.77036389e+06  1.77027410e+06  5.90e-08 6.73e-05  7.37e-05    54s
  78   1.77034430e+06  1.77028300e+06  4.21e-08 3.50e-05  5.03e-05    54s
  79   1.77032727e+06  1.77028882e+06  2.80e-08 1.50e-05  3.15e-05    55s
  80   1.77030827e+06  1.77029128e+06  1.16e-08 6.88e-06  1.39e-05    55s
  81   1.77030394e+06  1.77029337e+06  8.04e-09 1.54e-07  8.66e-06    56s
  82   1.77029384e+06  1.77029365e+06  1.30e-10 2.52e-08  1.55e-07    56s
  83   1.77029367e+06  1.77029367e+06  1.35e-11 7.22e-11  1.96e-11    57s

Barrier solved model in 83 iterations and 56.54 seconds
Optimal objective 1.77029367e+06


Root crossover log...

  208111 DPushes remaining with DInf 0.0000000e+00                57s
       0 DPushes remaining with DInf 0.0000000e+00                57s

    1710 PPushes remaining with PInf 0.0000000e+00                57s
       0 PPushes remaining with PInf 0.0000000e+00                58s

  Push phase complete: Pinf 0.0000000e+00, Dinf 1.7071677e-10     58s


Root simplex log...

Iteration    Objective       Primal Inf.    Dual Inf.      Time
   30322    1.7702937e+06   0.000000e+00   0.000000e+00     58s

Solved with barrier

Root relaxation: objective 1.770294e+06, 30322 iterations, 47.85 seconds
Total elapsed time = 60.52s

    Nodes    |    Current Node    |     Objective Bounds      |     Work
 Expl Unexpl |  Obj  Depth IntInf | Incumbent    BestBd   Gap | It/Node Time

     0     0 1770293.67    0 10522 2021406.00 1770293.67  12.4%     -   64s
H    0     0                    1850783.0000 1770293.67  4.35%     -  115s
     0     0 1770300.00    0 10922 1850783.00 1770300.00  4.35%     -  134s
H    0     0                    1775856.0000 1770300.00  0.31%     -  144s
     0     0 1770308.42    0 10916 1775856.00 1770308.42  0.31%     -  158s
     0     0 1770309.08    0 10920 1775856.00 1770309.08  0.31%     -  171s
     0     0 1770312.91    0 11516 1775856.00 1770312.91  0.31%     -  190s
     0     0 1770316.71    0 11527 1775856.00 1770316.71  0.31%     -  201s
     0     0 1770317.81    0 11521 1775856.00 1770317.81  0.31%     -  209s
     0     0 1770318.22    0 11528 1775856.00 1770318.22  0.31%     -  218s
     0     0 1770334.25    0 11506 1775856.00 1770334.25  0.31%     -  243s
     0     0 1770335.44    0 10919 1775856.00 1770335.44  0.31%     -  252s
     0     0 1770335.95    0 11907 1775856.00 1770335.95  0.31%     -  267s
     0     0 1770335.95    0 11902 1775856.00 1770335.95  0.31%     -  268s
     0     0 1770344.13    0 11517 1775856.00 1770344.13  0.31%     -  285s
     0     0 1770346.21    0 11583 1775856.00 1770346.21  0.31%     -  300s

Cutting planes:
  Gomory: 2
  Zero half: 102

Explored 1 nodes (42331 simplex iterations) in 300.10 seconds
Thread count was 8 (of 8 available processors)

Solution count 3: 1.77586e+06 1.85078e+06 2.02141e+06 

Time limit reached
Best objective 1.775856000000e+06, best bound 1.770346214583e+06, gap 0.3103%

User-callback calls 37448, time in user-callback 0.29 sec
Solution written to /Users/mdeboute/Desktop/Etudes/Master/M2/S9/GOPP/Projet/multi-period-flp/solution/instMulti_I50_J1000_T8_1_result.txt
